20
3 15
3 0
3 6
3 13
3 8
3 4
15 19
15 7
15 6
15 14
15 17
4 8
4 9
4 13
4 10
4 14
8 9
8 5
8 14
8 1
9 2
9 11
9 16
9 12
0 16
0 17
0 12
0 18
0 2
16 12
16 13
16 18
16 2
11 14
11 1
11 5
11 6
11 17
14 19
14 10
12 17
12 18
12 1
19 7
19 10
19 1
19 6
2 5
2 13
2 6
5 18
5 17
5 7
1 10
1 7
7 18
7 17
18 10
13 10
13 6
